c Random 6-CNF over 20 variables and 10 clauses
c Generated with `cnfgen`
c (C) 2012-2019 Massimo Lauria <massimo.lauria@uniroma1.it>
c https://massimolauria.net/cnfgen
c
c COMMAND LINE: cnfgen randkcnf 6 20 10
c
p cnf 20 10
-2 3 -10 12 -14 -18 0
-1 6 17 18 -19 20 0
2 5 8 12 16 20 0
2 5 -8 -11 12 19 0
-3 -5 -6 10 -11 17 0
2 -3 -6 -9 -13 -16 0
-1 -5 -6 -7 -10 16 0
2 3 -5 11 17 -20 0
-1 -7 -9 10 -15 17 0
2 6 -12 -15 18 20 0
